(declare-const p2 Real)
(declare-const income Real)
(declare-const p3 Real)
(declare-const p7 Real)
(declare-const p5 Real)
(declare-const p4 Real)
(declare-const p6 Real)
(declare-const p1 Real)
(declare-const fee_bl Real)
(assert (= p1 (* 0.014 (ite (> income 20000) 20000 income))))
(assert (= p2 (ite (> income 20000) (* 0.0175 (- (ite (> income 35000) 35000 income) 20000)) 0)))
(assert (= p3 (ite (> income 35000) (* 0.035 (- (ite (> income 40000) 40000 income) 35000)) 0)))
(assert (= p4 (ite (> income 40000) (* 0.05525 (- (ite (> income 75000) 75000 income) 40000)) 0)))
(assert (= p5 (ite (> income 75000) (* 0.0637 (- (ite (> income 500000) 500000 income) 75000)) 0)))
(assert (= p6 (ite (> income 500000) (* 0.0897 (- (ite (> income 1000000) 1000000 income) 500000)) 0)))
(assert (= p7 (ite (> income 1000000) (* 0.1075 (- income 1000000)) 0)))
(assert (= fee_bl (+ (+ (+ (+ (+ (+ p1 p2) p3) p4) p5) p6) p7)))

